NAME : mr13
COMMENT : 13-city problem (DISC)
TYPE : TSP
DIMENSION : 13
EDGE_WEIGHT_TYPE : EUC_2D
NODE_COORD_SECTION
1 78 86
2 24 38
3 83 68
4 97 26
5 98 35
6 46 1
7 61 36
8 78 95
9 65 22
10 73 32
11 4 92
12 30 4
13 6 7
EOF
